myproject/instances/20nodes/rnd5_20.tsp
NAME : rnd5_20.tsp
TYPE : TSP
DIMENSION : 20
EDGE_WEIGHT_TYPE : EUC_2D
NODE_COORD_SECTION
1 520 48
2 61 977
3 366 632
4 284 28
5 719 55
6 174 160
7 141 841
8 522 17
9 952 583
10 305 252
11 753 973
12 726 515
13 322 394
14 783 123
15 875 867
16 438 381
17 675 299
18 336 136
19 893 441
20 511 446
