myproject/instances/20nodes/rnd5_20.opt.tour
NAME : rnd5_20.tsp.tsp.optbc.tour
TYPE : TOUR
DIMENSION : 20
TOUR_SECTION
1
8
4
18
6
10
13
16
20
3
7
2
11
15
9
19
12
17
14
5
-1